NAME : 10_3_3_2_(41).dat
COMMENT : Henke, Speranza, Wäscher, 2015
TYPE : MCVRP
DIMENSION : 11
EDGE_WEIGHT_TYPE : DISTANCE_MATRIX
CAPACITY : 1000
VEHICLES : 2
PRODUCT TYPES : 3
COMPARTMENTS : 3
NODE_COORD_SECTION
1 50 50
2 32.15 30.41
3 29.24 33.32
4 38.93 90.8
5 41.41 46.93
6 89.65 91.79
7 4.44 49.56
8 75.7 99.83
9 5.58 45.26
10 40.76 46.28
11 31.87 91.56
DEMAND_SECTION
1 0 0 0
2 26 31 0
3 118 0 37
4 0 60 45
5 105 29 0
6 23 81 0
7 80 0 81
8 0 81 69
9 141 0 28
10 146 50 0
11 7 57 0
DEPOT_SECTION
1
EOF